c File: instances/30_0.45_3.col
c
c Description: Random graph of size 30 vertices and P(0.44999999999999996) of edges between any two vertices.
p col 30 435
e 1 2
e 1 4
e 1 8
e 1 12
e 1 15
e 1 16
e 1 21
e 1 28
e 2 4
e 2 5
e 2 9
e 2 10
e 2 11
e 2 12
e 2 14
e 2 17
e 2 23
e 2 28
e 2 29
e 2 30
e 3 4
e 3 6
e 3 8
e 3 9
e 3 12
e 3 13
e 3 16
e 3 18
e 3 19
e 3 20
e 3 21
e 3 23
e 3 27
e 3 28
e 3 30
e 4 5
e 4 7
e 4 8
e 4 12
e 4 15
e 4 19
e 4 20
e 4 27
e 5 6
e 5 7
e 5 8
e 5 9
e 5 10
e 5 16
e 5 17
e 5 20
e 5 22
e 5 23
e 5 24
e 6 7
e 6 13
e 6 15
e 6 17
e 6 20
e 6 24
e 6 25
e 6 27
e 6 29
e 7 8
e 7 10
e 7 11
e 7 13
e 7 15
e 7 18
e 7 22
e 7 25
e 7 28
e 7 30
e 8 9
e 8 10
e 8 12
e 8 13
e 8 15
e 8 17
e 8 19
e 8 20
e 8 23
e 8 24
e 8 29
e 9 10
e 9 11
e 9 13
e 9 14
e 9 15
e 9 20
e 9 21
e 9 27
e 9 29
e 10 11
e 10 17
e 10 19
e 10 21
e 10 22
e 10 23
e 10 24
e 10 25
e 10 26
e 10 27
e 10 29
e 11 12
e 11 13
e 11 15
e 11 18
e 11 23
e 11 26
e 11 27
e 12 13
e 12 14
e 12 15
e 12 17
e 12 18
e 12 19
e 12 21
e 12 22
e 12 23
e 12 25
e 13 14
e 13 17
e 13 19
e 13 20
e 13 21
e 13 22
e 13 23
e 13 26
e 13 29
e 14 15
e 14 17
e 14 21
e 14 24
e 14 25
e 14 26
e 14 27
e 14 29
e 14 30
e 15 19
e 15 20
e 15 23
e 15 24
e 15 25
e 15 26
e 15 29
e 15 30
e 16 17
e 16 20
e 16 21
e 16 22
e 16 28
e 16 30
e 17 18
e 17 19
e 17 25
e 17 26
e 17 27
e 17 30
e 18 19
e 18 20
e 18 24
e 18 27
e 18 28
e 18 30
e 19 20
e 19 22
e 19 26
e 19 29
e 20 21
e 20 24
e 20 27
e 20 28
e 21 23
e 21 26
e 21 28
e 21 29
e 21 30
e 22 23
e 22 24
e 22 26
e 22 29
e 22 30
e 23 24
e 23 25
e 23 27
e 23 28
e 23 30
e 24 25
e 24 28
e 24 30
e 25 28
e 25 29
e 26 28
e 26 29
e 27 28
e 27 29
e 27 30
e 29 30